(set-info :smt-lib-version 2.6)
(set-logic QF_UFLRA)
(set-info :source |
MathSat group

|)
(set-info :category "random")
(set-info :status sat)
(declare-fun x0 () Real)
(declare-fun x1 () Real)
(declare-fun x2 () Real)
(declare-fun x3 () Real)
(declare-fun x4 () Real)
(declare-fun x5 () Real)
(declare-fun x6 () Real)
(declare-fun x7 () Real)
(declare-fun x8 () Real)
(declare-fun x9 () Real)
(declare-fun x10 () Real)
(declare-fun x11 () Real)
(declare-fun x12 () Real)
(declare-fun x13 () Real)
(declare-fun x14 () Real)
(declare-fun x15 () Real)
(declare-fun x16 () Real)
(declare-fun x17 () Real)
(declare-fun x18 () Real)
(declare-fun x19 () Real)
(declare-fun x20 () Real)
(declare-fun x21 () Real)
(declare-fun x22 () Real)
(declare-fun x23 () Real)
(declare-fun x24 () Real)
(declare-fun x25 () Real)
(declare-fun x26 () Real)
(declare-fun x27 () Real)
(declare-fun x28 () Real)
(declare-fun x29 () Real)
(declare-fun x30 () Real)
(declare-fun x31 () Real)
(declare-fun x32 () Real)
(declare-fun x33 () Real)
(declare-fun x34 () Real)
(declare-fun x35 () Real)
(declare-fun x36 () Real)
(declare-fun x37 () Real)
(declare-fun x38 () Real)
(declare-fun x39 () Real)
(declare-fun x40 () Real)
(declare-fun x41 () Real)
(declare-fun x42 () Real)
(declare-fun x43 () Real)
(declare-fun x44 () Real)
(declare-fun x45 () Real)
(declare-fun x46 () Real)
(declare-fun x47 () Real)
(declare-fun x48 () Real)
(declare-fun x49 () Real)
(declare-fun f0_1 (Real) Real)
(declare-fun f0_2 (Real Real) Real)
(declare-fun f0_3 (Real Real Real) Real)
(declare-fun f0_4 (Real Real Real Real) Real)
(declare-fun P0 () Bool)
(declare-fun P1 () Bool)
(declare-fun P2 () Bool)
(declare-fun P3 () Bool)
(declare-fun P4 () Bool)
(declare-fun P5 () Bool)
(declare-fun P6 () Bool)
(declare-fun P7 () Bool)
(declare-fun P8 () Bool)
(declare-fun P9 () Bool)
(declare-fun P10 () Bool)
(declare-fun P11 () Bool)
(declare-fun P12 () Bool)
(declare-fun P13 () Bool)
(declare-fun P14 () Bool)
(declare-fun P15 () Bool)
(declare-fun P16 () Bool)
(declare-fun P17 () Bool)
(declare-fun P18 () Bool)
(declare-fun P19 () Bool)
(declare-fun P20 () Bool)
(declare-fun P21 () Bool)
(declare-fun P22 () Bool)
(declare-fun P23 () Bool)
(declare-fun P24 () Bool)
(declare-fun P25 () Bool)
(declare-fun P26 () Bool)
(declare-fun P27 () Bool)
(declare-fun P28 () Bool)
(declare-fun P29 () Bool)
(declare-fun P30 () Bool)
(declare-fun P31 () Bool)
(declare-fun P32 () Bool)
(declare-fun P33 () Bool)
(declare-fun P34 () Bool)
(declare-fun P35 () Bool)
(declare-fun P36 () Bool)
(declare-fun P37 () Bool)
(declare-fun P38 () Bool)
(declare-fun P39 () Bool)
(declare-fun P40 () Bool)
(declare-fun P41 () Bool)
(declare-fun P42 () Bool)
(declare-fun P43 () Bool)
(declare-fun P44 () Bool)
(declare-fun P45 () Bool)
(declare-fun P46 () Bool)
(declare-fun P47 () Bool)
(declare-fun P48 () Bool)
(declare-fun P49 () Bool)
(assert (let ((?v_133 (* 25 x23)) (?v_44 (* 21 x2)) (?v_216 (distinct (- (- (* 4 x16) (* 10 x40)) (* 10 x38)) 14)) (?v_125 (< (+ (- (* 7 x1) (* 3 x45)) (* 17 x33)) 29)) (?v_220 (< (+ (- (* 5 x2) (* 3 x20)) (* 16 x30)) 13)) (?v_14 (* 16 x4)) (?v_23 (< (- (- (* 20 x27) (* 24 x6)) (* 20 x23)) 19)) (?v_1 (* 18 x14))) (let ((?v_71 (< (+ (- ?v_14 (* 2 x22)) ?v_1) 5)) (?v_175 (<= (- (+ ?v_133 (* 18 x12)) (* 16 x48)) 3)) (?v_223 (= (- (+ (* 11 x35) (* 16 x16)) (* 10 x37)) 14)) (?v_6 (* 16 x6)) (?v_159 (< (- (- (* 15 x8) ?v_1) (* 20 x6)) 16)) (?v_260 (distinct (f0_1 x17) x10)) (?v_239 (distinct (f0_1 x6) x48)) (?v_154 (distinct (f0_2 x35 x4) x38)) (?v_84 (= (f0_2 x33 x14) (f0_1 x30))) (?v_136 (distinct x0 (f0_1 x21))) (?v_100 (f0_1 x33))) (let ((?v_24 (= x13 ?v_100)) (?v_64 (= (f0_2 x11 x29) (f0_2 x15 x46))) (?v_11 (= (f0_2 x5 x45) (f0_2 x15 x20))) (?v_156 (distinct ?v_100 x33)) (?v_104 (= (f0_2 x21 x17) (f0_2 x7 x40))) (?v_214 (= x39 (f0_2 x33 x39))) (?v_61 (f0_1 x46))) (let ((?v_118 (distinct ?v_61 (f0_2 x16 x36))) (?v_91 (distinct ?v_61 (f0_1 x27))) (?v_102 (f0_1 x36))) (let ((?v_31 (distinct x48 ?v_102)) (?v_189 (distinct (f0_2 x15 x1) (f0_2 x8 x11))) (?v_0 (f0_1 x34))) (let ((?v_27 (= ?v_0 x42)) (?v_90 (distinct (f0_2 x43 x30) (f0_1 x47))) (?v_74 (f0_1 x24))) (let ((?v_120 (distinct (f0_2 x28 x12) ?v_74)) (?v_92 (= ?v_74 x10)) (?v_162 (= x36 x22)) (?v_178 (distinct (f0_2 x26 x29) x30)) (?v_40 (distinct x28 x28)) (?v_10 (f0_1 x31))) (let ((?v_22 (= ?v_10 (f0_2 x11 x44))) (?v_32 (= x20 (f0_1 x23))) (?v_97 (f0_1 x11))) (let ((?v_51 (= x30 ?v_97)) (?v_83 (distinct (f0_2 x26 x8) x18)) (?v_98 (distinct (f0_2 x0 x35) (f0_1 x1))) (?v_179 (= (f0_1 x5) x40)) (?v_76 (f0_1 x2))) (let ((?v_131 (distinct x20 ?v_76)) (?v_173 (distinct (f0_2 x4 x28) x29)) (?v_231 (distinct (f0_2 x46 x34) (f0_2 x2 x27))) (?v_89 (= (f0_2 x41 x28) x14)) (?v_176 (distinct (f0_1 x10) x24)) (?v_139 (= x22 x4)) (?v_112 (distinct x36 ?v_76)) (?v_20 (= (f0_2 x43 x43) (f0_1 x14))) (?v_130 (distinct (f0_1 x0) (f0_2 x36 x15))) (?v_207 (= (f0_1 x28) ?v_102)) (?v_28 (= x10 (f0_2 x38 x20))) (?v_152 (= (f0_1 x45) x29)) (?v_183 (= ?v_97 (f0_1 x13))) (?v_37 (distinct (f0_2 x39 x2) ?v_10)) (?v_169 (= (f0_2 x30 x49) (f0_1 x18))) (?v_57 (distinct ?v_0 (f0_2 x34 x10))) (?v_9 (= (f0_1 x26) (f0_2 x42 x15))) (?v_238 (= (f0_2 x6 x2) (f0_2 x20 x26))) (?v_197 (distinct x40 x40)) (?v_17 (distinct (f0_1 x15) x48)) (?v_141 (distinct (f0_2 x19 x30) (f0_2 x35 x7))) (?v_95 (distinct (f0_1 x49) (f0_2 x0 x25))) (?v_185 (not P22)) (?v_165 (not P48)) (?v_208 (not P34)) (?v_227 (not ?v_71)) (?v_4 (not P9)) (?v_115 (not P13))) (let ((?v_53 (not ?v_131)) (?v_94 (not ?v_17)) (?v_101 (not ?v_159)) (?v_123 (not P38)) (?v_50 (not P18)) (?v_3 (not ?v_95)) (?v_128 (not P30)) (?v_206 (not P47)) (?v_81 (not P4)) (?v_105 (not P6)) (?v_161 (not P29)) (?v_13 (not P26)) (?v_116 (not ?v_139)) (?v_54 (not ?v_152)) (?v_78 (not P36)) (?v_245 (not ?v_24)) (?v_66 (not ?v_84)) (?v_55 (not ?v_189)) (?v_113 (not P1)) (?v_25 (not ?v_37)) (?v_212 (not ?v_89)) (?v_67 (not P3)) (?v_79 (not ?v_141)) (?v_213 (not ?v_20)) (?v_192 (not ?v_23)) (?v_126 (not ?v_11)) (?v_252 (not P28)) (?v_153 (not ?v_27)) (?v_158 (not ?v_231)) (?v_111 (not ?v_28)) (?v_73 (not ?v_238)) (?v_58 (not ?v_31)) (?v_33 (not ?v_32)) (?v_56 (not P49)) (?v_236 (not P7)) (?v_96 (not P42)) (?v_250 (not ?v_40)) (?v_47 (not P32)) (?v_75 (not ?v_51)) (?v_52 (not ?v_260)) (?v_144 (not P14)) (?v_255 (not P37)) (?v_70 (not P8)) (?v_222 (not P41)) (?v_132 (not ?v_223)) (?v_180 (not P17)) (?v_235 (not ?v_57)) (?v_77 (not ?v_176)) (?v_108 (not ?v_118)) (?v_193 (not ?v_216)) (?v_134 (not P10)) (?v_229 (not ?v_162)) (?v_174 (not ?v_178)) (?v_221 (not P11)) (?v_191 (not P35)) (?v_217 (not ?v_130)) (?v_256 (not ?v_83)) (?v_103 (not ?v_22)) (?v_138 (not ?v_136)) (?v_151 (not ?v_92)) (?v_109 (not P39)) (?v_181 (not ?v_183)) (?v_129 (not P43)) (?v_182 (not ?v_207)) (?v_228 (not ?v_104)) (?v_184 (not P25)) (?v_142 (not ?v_173)) (?v_124 (not ?v_9)) (?v_209 (not ?v_214)) (?v_167 (not P16)) (?v_145 (not ?v_98)) (?v_233 (not ?v_112)) (?v_148 (not P12)) (?v_258 (not P20)) (?v_140 (not ?v_90)) (?v_172 (not P0)) (?v_135 (not P19)) (?v_210 (not P31)) (?v_150 (not ?v_125)) (?v_199 (not P21)) (?v_168 (not P33)) (?v_198 (not ?v_154)) (?v_164 (not ?v_156)) (?v_188 (not ?v_91)) (?v_195 (not ?v_197)) (?v_240 (not ?v_220)) (?v_219 (not P24)) (?v_248 (not ?v_64)) (?v_170 (not ?v_120)) (?v_202 (not ?v_169)) (?v_242 (not ?v_175)) (?v_224 (not P44)) (?v_211 (not ?v_179)) (?v_230 (not P5)) (?v_225 (not P45)) (?v_203 (not P2)) (?v_237 (not P23))) (let ((?v_234 (or ?v_103 ?v_192)) (?v_215 (not P46)) (?v_226 (not P27)) (?v_257 (not P15)) (?v_16 (<= (+ (* 13 x45) x49 (* 23 x28)) 0))) (let ((?v_29 (not ?v_16)) (?v_30 (< (- (- 0 (* 13 x22)) (* 26 x41)) 29))) (let ((?v_200 (not ?v_30)) (?v_42 (<= (- 0 ?v_6) 16))) (let ((?v_87 (not ?v_42)) (?v_143 (< (+ (* 8 x48) (* 5 x7) x22) 12)) (?v_146 (<= (+ (* 22 x36) (* 11 x20) (* 19 x44)) 3)) (?v_157 (< (- (+ x15 (* 8 x13)) (* 24 x20)) 29))) (let ((?v_190 (not ?v_143)) (?v_196 (not ?v_146)) (?v_247 (not ?v_157)) (?v_7 (<= (- (+ (* 13 x3) ?v_133) (* 15 x46)) (- 6)))) (let ((?v_82 (not ?v_7)) (?v_49 (distinct (+ (- (* (- 5) x25) (* 3 x3)) (* 26 x31)) (- 15))) (?v_204 (< (- (- (* (- 7) x42) (* 17 x1)) (* 16 x41)) 20))) (let ((?v_137 (not ?v_204)) (?v_2 (= (+ (- (* 15 x29) (* 4 x13)) (* 15 x33)) (- 28))) (?v_48 (< (- (- (* (- 25) x2) (* 22 x28)) (* 20 x24)) (- 27))) (?v_119 (= (+ (- (* (- 6) x0) (* 17 x24)) ?v_44) (- 4)))) (let ((?v_12 (not ?v_119)) (?v_8 (<= (- (- (* (- 23) x14) (* 22 x20)) ?v_6) (- 23))) (?v_127 (not ?v_2)) (?v_88 (< (+ (- (* 5 x8) (* 15 x18)) (* 9 x33)) (- 3)))) (let ((?v_72 (not ?v_88)) (?v_107 (< (- (- (* (- 9) x23) (* 4 x18)) (* 15 x11)) 28)) (?v_18 (distinct (+ (- (* (- 24) x36) (* 6 x38)) (* 4 x3)) (- 14))) (?v_5 (= (- (+ (* (- 5) x18) (* 16 x9)) (* 3 x41)) 18))) (let ((?v_19 (not ?v_5)) (?v_59 (< (+ (* (- 5) x5) (* 11 x28)) 24)) (?v_114 (< (- (- (* (- 13) x32) (* 10 x14)) (* 11 x37)) (- 17)))) (let ((?v_171 (not ?v_114)) (?v_15 (= (- (* (- 1) x6) (* 6 x37)) 8)) (?v_186 (<= (- (+ (* (- 7) x34) (* 27 x33)) (* 27 x12)) 27))) (let ((?v_46 (not ?v_186)) (?v_241 (not ?v_8)) (?v_34 (<= (- (- ?v_14 (* 15 x15)) (* 18 x2)) (- 24))) (?v_68 (not ?v_15)) (?v_69 (<= (- (- (* (- 10) x41) (* 5 x16)) 0) 12))) (let ((?v_39 (not ?v_69)) (?v_21 (<= (+ (- (* (- 23) x33) (* 4 x19)) (* 3 x7)) (- 24))) (?v_110 (<= (- (- (* (- 25) x29) (* 20 x42)) 0) 19)) (?v_160 (not ?v_18)) (?v_26 (< (+ (* (- 1) x19) (* 23 x30) (* 11 x38)) 28)) (?v_41 (<= (- (* (- 5) x13) (* 26 x39)) (- 23))) (?v_38 (<= (- (- (* (- 4) x41) 0) (* 15 x41)) 17))) (let ((?v_187 (not ?v_38)) (?v_163 (not ?v_26)) (?v_43 (< (+ (* (- 19) x22) (* 15 x9) (* 20 x2)) (- 18)))) (let ((?v_99 (not ?v_43)) (?v_35 (distinct (+ (- (* (- 27) x32) (* 8 x7)) (* 8 x6)) 18))) (let ((?v_147 (not ?v_35)) (?v_149 (< (- (+ (* 13 x34) (* 10 x7)) (* 8 x46)) (- 27))) (?v_177 (distinct (- (+ (* (- 19) x31) (* 11 x33)) (* 8 x17)) (- 28)))) (let ((?v_36 (not ?v_177)) (?v_45 (not ?v_34)) (?v_106 (< (+ (* (- 20) x6) (* 4 x11) (* 7 x32)) (- 24))) (?v_232 (not ?v_41)) (?v_117 (= (- (- (* 27 x2) (* 24 x10)) ?v_44) (- 24))) (?v_60 (not ?v_48)) (?v_63 (< (+ (- (* (- 17) x10) (* 24 x9)) (* 17 x32)) (- 17)))) (let ((?v_85 (not ?v_63)) (?v_80 (not ?v_49)) (?v_86 (<= (- (* 12 x40) (* 10 x18)) (- 23)))) (let ((?v_65 (not ?v_86)) (?v_62 (not ?v_59)) (?v_155 (<= (+ (* 11 x41) (* 8 x35) (* 17 x19)) (- 26))) (?v_93 (<= (- (- (* 2 x26) (* 20 x18)) x14) (- 4))) (?v_121 (= (- (- (* (- 17) x6) (* 22 x4)) (* 12 x41)) 9)) (?v_205 (< (- (+ (* (- 12) x29) (* 8 x49)) (* 26 x33)) (- 23)))) (let ((?v_201 (not ?v_205)) (?v_122 (not ?v_93)) (?v_166 (< (- (- (* 24 x44) (* 27 x23)) (* 14 x33)) (- 20)))) (let ((?v_194 (not ?v_166)) (?v_243 (not ?v_155)) (?v_246 (<= (+ (* (- 12) x36) (* 14 x24) (* 6 x35)) (- 27))) (?v_251 (not ?v_110)) (?v_218 (not ?v_121)) (?v_253 (not ?v_106)) (?v_259 (not ?v_117)) (?v_249 (not ?v_107)) (?v_244 (not ?v_149)) (?v_254 (not ?v_21))) (and (and (and (and (and (and (and (and (and (and (and (and (and (and (and (and (and (and (and (and (and (and (and (and (and (and (and (and (and (and (and (and (and (and (and (and (and (and (and (and (and (and (and (and (and (and (and (and (and (and (and (and (and (and (and (and (and (and (and (and (and (and (and (and (and (and (and (and (and (and (and (and (and (and (and (and (and (and (and (and (and (and (and (and (and (and (and (and (and (and (and (and (and (and (and (and (and (and (and (and (and (and (and (and (and (and (and (and (and (and (and (and (and (and (and (and (and (and (and (and (and (and (and (and (and (and (and (and (and (and (and (and (and (and (and (and (and (and (and (and (and (and (and (and (and (and (and (and (and (and (and (and (and (and (and (and (and (and (and (and (and (and (and (and (and (and (and (and (and (and (and (and (and (and (and (and (and (and (and (and (and (and (and (and (and (and (and (and (and (and (and (and (and (and (and (and (and (and (and (and (and (and (and (and (and (and (and (and (and (and (and (and (and (and (and (and (and (and (and (and (and (and (and (and (and (and (and (and (and (and (and (and (and (and (and (and (and (and (and (and (and (and (and (and (and (and (and (and (and (and (and (and (and (and (and (and (and (and (and (and (and (and (and (and (and (and (and (and (and (and (and (and (and (and (and (and (and (and (and (and (and (and (and (and (and (and (and (and (and (and (and (and (and (and (and (and (and (and (and (and (and (and (and (and (and (and (and (and (and (and (and (and (and (and (and (and (and (and (and (and (and (and (and (and (and (and (and (and (and (and (and (and (and (and (and (and (and (and (and (and (and (and (and (and (and (and (and (and (and (and (and (and (and (and (and (and (and (and (and (and (and (and (and (and (and (and (and (and (and (and (and (and (and (and (and (and (and (and (and (and (and (and (and (and (and (and (and (and (and (and (and (and (and (and (and (and (and (and (and (and (and (and (and (and (and (and (and (and (and (and (and (and (and (and (and (and (and (and (and (and (and (and (and (and (and (and (and (and (and (and (and (and (and (and (and (and (and (and (and (and (and (and (and (and (and (and (and (and (and (and (and (and (and (and (and (and (and (and (and (and (and (and (and (and (and (and (and (and (and (and (and (and (and (and (and (and (and (and (and (and (and (and (and (and (and (and (and (and (and (and (and (and (and (and (and (and (and (and (and (and (and (and (and (and (and (and (and (and (and (and (and (and (and (and (and (and (and (and (and (and (and (and (and (and (and (and (and (and (and (and (and (and (and (and (and (and (and (and (and (and (and (and (and (and (and (and (and (and (and (and (and (and (and (and (and (and (and (and (and (and (and (and (and (and (and (and (and (and (and (and (and (and (and (and (and (and (and (and (and (and (and (and (and (and (and (and (and (and (and (and (and (and (and (and (and (and (and (and (and (or (or ?v_185 ?v_11) ?v_165) (or (or ?v_82 ?v_208) ?v_227)) (or (or P46 ?v_4) ?v_49)) (or (or P2 ?v_115) ?v_53)) (or (or P7 ?v_22) ?v_137)) (or (or ?v_2 ?v_57) ?v_29)) (or (or ?v_27 ?v_94) ?v_48)) (or (or ?v_32 P16) ?v_12)) (or (or ?v_101 ?v_104) ?v_123)) (or (or P12 P31) ?v_50)) (or (or ?v_8 ?v_3) ?v_23)) (or (or ?v_128 ?v_31) ?v_127)) (or (or ?v_72 ?v_107) ?v_206)) (or (or ?v_3 ?v_200) P10)) (or (or ?v_120 ?v_4) ?v_18)) (or (or ?v_9 ?v_81) ?v_19)) (or (or P1 ?v_5) ?v_59)) (or (or ?v_171 ?v_15) ?v_46)) (or (or P24 ?v_87) ?v_105)) (or (or ?v_161 ?v_90) ?v_7)) (or (or ?v_13 ?v_20) ?v_83)) (or (or ?v_241 ?v_116) P43)) (or (or ?v_54 ?v_9) ?v_78)) (or (or ?v_125 ?v_245) P45)) (or (or ?v_66 ?v_55) ?v_113)) (or (or ?v_25 ?v_11) ?v_12)) (or (or ?v_13 ?v_34) ?v_68)) (or (or ?v_16 ?v_91) ?v_39)) (or (or P30 ?v_21) ?v_212)) (or (or ?v_17 ?v_110) ?v_5)) (or (or ?v_179 ?v_67) ?v_3)) (or (or ?v_160 ?v_26) ?v_40)) (or (or ?v_154 ?v_79) ?v_19)) (or (or ?v_213 P35) ?v_41)) (or (or ?v_21 ?v_22) ?v_187)) (or (or P23 ?v_192) ?v_24)) (or (or P22 ?v_126) ?v_252)) (or (or ?v_25 ?v_163) ?v_99)) (or (or ?v_153 ?v_147) P42)) (or (or ?v_28 ?v_19) ?v_158)) (or (or ?v_12 ?v_111) ?v_149)) (or (or ?v_73 ?v_5) P37)) (or (or ?v_15 ?v_3) ?v_16)) (or (or ?v_29 ?v_30) ?v_58)) (or (or P45 ?v_33) P14)) (or (or ?v_33 ?v_36) ?v_56)) (or (or ?v_45 ?v_35) P36)) (or (or ?v_18 P24) ?v_36)) (or (or ?v_236 ?v_37) ?v_96)) (or (or ?v_38 ?v_39) ?v_106)) (or (or ?v_32 ?v_250) ?v_47)) (or (or ?v_232 ?v_42) ?v_169)) (or (or ?v_75 P31) ?v_43)) (or (or ?v_36 ?v_143) ?v_40)) (or (or ?v_117 ?v_45) ?v_46)) (or (or P4 ?v_43) ?v_146)) (or (or ?v_47 ?v_60) ?v_18)) (or (or ?v_52 ?v_85) ?v_144)) (or (or ?v_255 P33) ?v_80)) (or (or ?v_70 ?v_222) ?v_5)) (or (or ?v_50 ?v_51) ?v_64)) (or (or ?v_132 ?v_30) P47)) (or (or P37 ?v_52) ?v_53)) (or (or ?v_54 ?v_33) ?v_55)) (or (or ?v_65 ?v_180) ?v_56)) (or (or ?v_235 P44) ?v_58)) (or (or ?v_77 ?v_62) ?v_39)) (or (or P4 ?v_60) ?v_108)) (or (or ?v_62 ?v_60) ?v_63)) (or (or ?v_64 ?v_42) ?v_65)) (or (or P8 ?v_23) P5)) (or (or ?v_193 ?v_35) ?v_66)) (or (or ?v_67 ?v_68) P8)) (or (or P15 ?v_55) ?v_34)) (or (or ?v_69 P29) ?v_70)) (or (or P10 P35) P18)) (or (or ?v_71 ?v_72) ?v_73)) (or (or ?v_26 ?v_92) ?v_67)) (or (or P27 ?v_75) ?v_112)) (or (or ?v_134 ?v_77) ?v_157)) (or (or ?v_24 ?v_229) ?v_155)) (or (or ?v_174 ?v_221) ?v_17)) (or (or ?v_191 ?v_217) ?v_78)) (or (or ?v_79 ?v_80) ?v_81)) (or (or ?v_82 ?v_35) P21)) (or (or ?v_256 ?v_93) P35)) (or (or ?v_70 ?v_103) ?v_84)) (or (or ?v_85 ?v_121) ?v_138)) (or (or ?v_86 P19) ?v_87)) (or (or ?v_8 ?v_88) ?v_89)) (or (or ?v_90 ?v_91) ?v_26)) (or (or ?v_54 ?v_5) ?v_151)) (or (or ?v_93 ?v_94) P10)) (or (or ?v_28 ?v_95) ?v_4)) (or (or ?v_98 ?v_96) P36)) (or (or ?v_109 ?v_181) ?v_98)) (or (or ?v_99 ?v_156) ?v_101)) (or (or ?v_129 ?v_91) ?v_182)) (or (or ?v_103 P45) ?v_201)) (or (or ?v_228 ?v_105) ?v_184)) (or (or ?v_106 ?v_107) P7)) (or (or ?v_90 ?v_88) ?v_108)) (or (or P17 ?v_142) ?v_124)) (or (or ?v_209 ?v_109) P19)) (or (or ?v_40 ?v_82) ?v_8)) (or (or ?v_167 ?v_110) ?v_111)) (or (or ?v_112 P41) ?v_145)) (or (or ?v_113 ?v_114) ?v_15)) (or (or ?v_233 ?v_67) ?v_115)) (or (or P5 ?v_116) P2)) (or (or P3 ?v_117) ?v_101)) (or (or ?v_148 ?v_48) ?v_13)) (or (or P40 ?v_39) ?v_62)) (or (or ?v_118 ?v_27) ?v_119)) (or (or ?v_120 ?v_108) ?v_258)) (or (or ?v_86 ?v_140) ?v_122)) (or (or ?v_121 ?v_40) ?v_105)) (or (or ?v_122 ?v_98) ?v_110)) (or (or ?v_123 P44) P13)) (or (or ?v_194 ?v_124) ?v_35)) (or (or ?v_71 ?v_125) ?v_172)) (or (or ?v_126 ?v_95) P27)) (or (or ?v_32 ?v_127) ?v_124)) (or (or ?v_16 P9) ?v_17)) (or (or ?v_128 P42) ?v_108)) (or (or ?v_129 ?v_88) ?v_130)) (or (or ?v_131 P3) ?v_45)) (or (or ?v_135 P42) ?v_38)) (or (or P16 ?v_132) ?v_175)) (or (or ?v_134 ?v_135) ?v_136)) (or (or P31 ?v_28) ?v_59)) (or (or P38 P31) ?v_137)) (or (or ?v_115 ?v_24) ?v_138)) (or (or ?v_53 ?v_210) ?v_65)) (or (or P29 ?v_139) ?v_140)) (or (or P40 ?v_141) ?v_142)) (or (or ?v_79 P44) ?v_91)) (or (or ?v_150 ?v_199) ?v_190)) (or (or P16 ?v_78) ?v_30)) (or (or P16 ?v_98) ?v_144)) (or (or ?v_145 ?v_196) ?v_82)) (or (or ?v_52 ?v_147) ?v_73)) (or (or ?v_49 ?v_168) ?v_17)) (or (or P12 ?v_148) ?v_149)) (or (or ?v_48 P20) ?v_150)) (or (or P19 P14) ?v_99)) (or (or ?v_134 ?v_42) ?v_49)) (or (or ?v_151 ?v_152) ?v_40)) (or (or ?v_87 ?v_153) ?v_94)) (or (or P43 P19) ?v_198)) (or (or ?v_243 ?v_143) ?v_60)) (or (or ?v_36 ?v_155) ?v_132)) (or (or ?v_164 ?v_72) ?v_38)) (or (or ?v_246 ?v_157) ?v_56)) (or (or ?v_56 P13) ?v_158)) (or (or P5 ?v_43) ?v_112)) (or (or ?v_41 ?v_188) ?v_29)) (or (or ?v_63 P35) P49)) (or (or ?v_159 ?v_46) ?v_160)) (or (or ?v_104 ?v_106) ?v_134)) (or (or ?v_156 ?v_161) ?v_31)) (or (or ?v_162 ?v_45) P0)) (or (or ?v_11 ?v_163) ?v_150)) (or (or P27 ?v_67) ?v_164)) (or (or (not P40) P20) ?v_165)) (or (or ?v_166 ?v_195) ?v_145)) (or (or ?v_240 ?v_157) ?v_251)) (or (or ?v_35 ?v_114) ?v_38)) (or (or ?v_2 ?v_135) ?v_160)) (or (or P46 P28) ?v_219)) (or (or P30 P29) ?v_28)) (or (or ?v_72 ?v_41) ?v_167)) (or (or ?v_140 ?v_32) ?v_63)) (or (or ?v_105 ?v_59) P18)) (or (or ?v_110 ?v_68) ?v_93)) (or (or ?v_168 ?v_13) ?v_165)) (or (or ?v_248 ?v_170) ?v_114)) (or (or ?v_143 P39) ?v_36)) (or (or ?v_42 ?v_202) ?v_148)) (or (or ?v_23 ?v_137) P38)) (or (or ?v_170 P17) P7)) (or (or ?v_89 ?v_171) ?v_172)) (or (or P34 ?v_173) P33)) (or (or ?v_174 ?v_242) ?v_176)) (or (or ?v_78 ?v_247) ?v_128)) (or (or ?v_45 ?v_177) ?v_99)) (or (or ?v_45 ?v_178) ?v_156)) (or (or ?v_224 ?v_56) P43)) (or (or P26 ?v_115) P48)) (or (or ?v_138 ?v_160) P38)) (or (or ?v_211 ?v_120) P39)) (or (or ?v_180 ?v_169) ?v_79)) (or (or ?v_81 ?v_60) P31)) (or (or ?v_90 ?v_58) ?v_72)) (or (or ?v_181 ?v_5) P34)) (or (or ?v_182 ?v_183) ?v_164)) (or (or ?v_51 ?v_118) ?v_184)) (or (or ?v_185 ?v_129) ?v_71)) (or (or ?v_230 P35) ?v_121)) (or (or P11 ?v_32) ?v_186)) (or (or ?v_110 ?v_225) ?v_81)) (or (or ?v_99 ?v_124) P5)) (or (or ?v_187 ?v_144) ?v_170)) (or (or ?v_25 P38) ?v_106)) (or (or ?v_25 ?v_180) ?v_47)) (or (or ?v_32 ?v_188) ?v_155)) (or (or P20 P8) ?v_187)) (or (or ?v_189 ?v_174) ?v_33)) (or (or P13 ?v_84) ?v_155)) (or (or ?v_190 ?v_95) ?v_47)) (or (or ?v_187 ?v_15) P1)) (or (or ?v_90 ?v_111) P25)) (or (or ?v_29 P45) P11)) (or (or ?v_191 ?v_176) ?v_33)) (or (or ?v_147 ?v_63) P28)) (or (or ?v_167 ?v_3) ?v_192)) (or (or ?v_150 ?v_113) ?v_33)) (or (or ?v_193 P49) P15)) (or (or ?v_194 ?v_195) ?v_147)) (or (or ?v_152 P20) ?v_17)) (or (or ?v_147 ?v_196) ?v_53)) (or (or ?v_197 ?v_66) P23)) (or (or ?v_96 ?v_71) ?v_109)) (or (or ?v_193 ?v_57) ?v_155)) (or (or ?v_27 ?v_93) ?v_3)) (or (or ?v_31 P16) ?v_151)) (or (or ?v_175 ?v_69) P37)) (or (or P43 ?v_27) ?v_125)) (or (or ?v_193 ?v_198) ?v_146)) (or (or P7 ?v_135) P11)) (or (or ?v_78 ?v_91) ?v_93)) (or (or ?v_162 ?v_116) ?v_199)) (or (or ?v_55 ?v_25) ?v_200)) (or (or ?v_124 ?v_30) ?v_191)) (or (or ?v_19 P6) ?v_103)) (or (or ?v_201 P15) ?v_129)) (or (or ?v_92 ?v_21) P24)) (or (or P3 ?v_192) ?v_42)) (or (or ?v_158 ?v_27) ?v_190)) (or (or ?v_65 ?v_56) ?v_218)) (or (or ?v_3 ?v_114) ?v_125)) (or (or ?v_203 P9) ?v_156)) (or (or ?v_202 ?v_85) ?v_34)) (or (or ?v_203 ?v_103) ?v_204)) (or (or ?v_32 ?v_142) ?v_191)) (or (or ?v_123 ?v_49) ?v_126)) (or (or ?v_110 ?v_43) P13)) (or (or ?v_115 ?v_142) ?v_205)) (or (or ?v_64 ?v_206) ?v_54)) (or (or ?v_253 P44) ?v_237)) (or (or ?v_150 ?v_123) P14)) (or (or ?v_117 P14) P6)) (or ?v_234 ?v_207)) (or (or ?v_168 ?v_38) P39)) (or (or ?v_135 ?v_208) ?v_104)) (or (or P29 ?v_21) ?v_34)) (or (or P13 ?v_22) ?v_189)) (or (or ?v_137 ?v_36) P27)) (or (or ?v_156 ?v_196) P6)) (or (or ?v_150 P33) ?v_59)) (or (or ?v_194 ?v_5) P49)) (or (or ?v_149 ?v_169) P26)) (or (or ?v_209 P10) ?v_54)) (or (or ?v_5 ?v_210) ?v_60)) (or (or ?v_176 ?v_118) ?v_161)) (or (or P48 P31) ?v_30)) (or (or P36 ?v_211) P0)) (or (or ?v_169 ?v_208) ?v_158)) (or (or ?v_17 P32) ?v_212)) (or (or ?v_215 P36) ?v_20)) (or (or ?v_128 ?v_122) ?v_53)) (or (or ?v_164 P38) ?v_23)) (or (or ?v_188 ?v_213) ?v_162)) (or (or ?v_106 ?v_67) P39)) (or (or ?v_46 ?v_46) ?v_145)) (or (or ?v_196 ?v_69) P22)) (or (or ?v_92 ?v_214) P11)) (or (or ?v_155 ?v_127) ?v_215)) (or (or ?v_24 ?v_29) P22)) (or (or ?v_134 ?v_80) ?v_259)) (or (or ?v_204 ?v_216) ?v_202)) (or (or ?v_122 ?v_141) ?v_37)) (or (or ?v_48 ?v_36) P35)) (or (or P13 ?v_151) ?v_83)) (or (or ?v_217 ?v_218) P13)) (or (or ?v_117 ?v_219) ?v_226)) (or (or P38 ?v_118) ?v_86)) (or (or ?v_50 ?v_158) ?v_27)) (or (or ?v_130 ?v_99) ?v_26)) (or (or ?v_220 P31) ?v_221)) (or (or ?v_105 ?v_127) ?v_189)) (or (or ?v_179 ?v_222) P4)) (or (or P27 ?v_173) ?v_31)) (or (or ?v_121 ?v_134) ?v_202)) (or (or ?v_223 ?v_224) P40)) (or (or ?v_203 ?v_123) ?v_175)) (or (or ?v_43 ?v_111) ?v_213)) (or (or ?v_3 ?v_159) ?v_120)) (or (or ?v_195 P1) ?v_39)) (or (or P42 ?v_225) ?v_122)) (or (or ?v_210 ?v_59) ?v_173)) (or (or ?v_166 ?v_226) ?v_227)) (or (or ?v_119 ?v_167) ?v_249)) (or (or P33 ?v_20) ?v_41)) (or (or ?v_184 ?v_43) ?v_239)) (or (or ?v_228 ?v_132) ?v_67)) (or (or ?v_39 ?v_134) P15)) (or (or ?v_63 ?v_62) ?v_171)) (or (or ?v_47 ?v_216) ?v_40)) (or (or ?v_229 ?v_18) ?v_36)) (or (or ?v_153 P44) P37)) (or (or ?v_230 ?v_73) ?v_126)) (or (or P22 ?v_146) P26)) (or (or P21 ?v_84) ?v_142)) (or (or ?v_223 ?v_54) ?v_33)) (or (or ?v_68 ?v_208) ?v_231)) (or (or ?v_232 ?v_109) P13)) (or (or ?v_150 ?v_168) P43)) (or (or ?v_143 ?v_192) P33)) (or (or ?v_27 ?v_174) ?v_175)) (or (or ?v_166 ?v_165) ?v_56)) (or (or ?v_175 ?v_17) ?v_233)) (or ?v_234 ?v_214)) (or (or ?v_176 P3) ?v_166)) (or (or P27 ?v_125) P17)) (or (or ?v_48 ?v_12) ?v_52)) (or (or ?v_188 ?v_13) ?v_235)) (or (or ?v_172 P22) ?v_41)) (or (or ?v_33 P24) ?v_146)) (or (or P35 P10) ?v_81)) (or (or ?v_164 ?v_30) ?v_32)) (or (or ?v_83 ?v_178) ?v_143)) (or (or P29 ?v_184) ?v_117)) (or (or P11 ?v_13) ?v_179)) (or (or ?v_218 P4) ?v_89)) (or (or ?v_202 ?v_236) ?v_182)) (or (or P28 ?v_227) ?v_56)) (or (or ?v_170 P36) ?v_189)) (or (or ?v_218 P39) ?v_95)) (or (or ?v_175 ?v_26) ?v_221)) (or (or ?v_35 ?v_32) ?v_115)) (or (or ?v_155 ?v_144) P5)) (or (or ?v_225 ?v_71) ?v_199)) (or (or ?v_11 ?v_33) ?v_56)) (or (or ?v_49 ?v_179) ?v_221)) (or (or ?v_209 P17) ?v_49)) (or (or ?v_189 ?v_21) P30)) (or (or P6 ?v_123) ?v_72)) (or (or ?v_82 ?v_223) ?v_113)) (or (or P40 ?v_38) ?v_120)) (or (or P9 ?v_193) ?v_30)) (or (or ?v_237 ?v_106) ?v_238)) (or (or ?v_47 ?v_20) ?v_239)) (or (or ?v_204 ?v_124) ?v_172)) (or (or ?v_112 ?v_78) P46)) (or (or ?v_240 ?v_60) ?v_206)) (or (or ?v_73 P13) ?v_192)) (or (or ?v_55 ?v_36) ?v_132)) (or (or ?v_53 ?v_153) ?v_21)) (or (or ?v_89 P49) ?v_43)) (or (or ?v_230 P21) ?v_9)) (or (or P33 ?v_125) ?v_109)) (or (or ?v_60 ?v_240) ?v_179)) (or (or ?v_241 ?v_27) P7)) (or (or ?v_91 ?v_221) ?v_119)) (or (or ?v_106 P22) P18)) (or (or ?v_134 ?v_199) P31)) (or (or P35 ?v_77) ?v_49)) (or (or ?v_11 ?v_124) ?v_208)) (or (or ?v_212 ?v_129) ?v_191)) (or (or P4 ?v_179) ?v_23)) (or (or ?v_107 ?v_209) ?v_16)) (or (or ?v_201 ?v_224) ?v_162)) (or (or ?v_203 ?v_72) ?v_23)) (or (or ?v_242 ?v_165) ?v_30)) (or (or ?v_174 ?v_238) ?v_180)) (or (or ?v_198 ?v_236) ?v_75)) (or (or ?v_99 ?v_173) ?v_40)) (or (or ?v_243 ?v_200) ?v_86)) (or (or ?v_52 P4) ?v_25)) (or (or ?v_147 ?v_92) ?v_243)) (or (or ?v_9 P35) ?v_198)) (or (or ?v_218 ?v_90) ?v_244)) (or (or ?v_81 ?v_40) ?v_157)) (or (or ?v_187 P43) ?v_64)) (or (or ?v_235 ?v_120) ?v_145)) (or (or ?v_201 ?v_153) ?v_172)) (or (or ?v_214 ?v_50) ?v_200)) (or (or P15 ?v_81) P9)) (or (or ?v_54 ?v_198) ?v_53)) (or (or ?v_178 ?v_161) ?v_78)) (or (or ?v_223 ?v_106) ?v_99)) (or (or ?v_155 P11) ?v_164)) (or (or ?v_87 P15) ?v_221)) (or (or ?v_244 ?v_235) ?v_80)) (or (or P42 P8) ?v_181)) (or (or P33 ?v_7) ?v_54)) (or (or ?v_18 P14) ?v_229)) (or (or ?v_24 ?v_222) P5)) (or (or ?v_84 ?v_245) ?v_155)) (or (or ?v_147 P39) ?v_43)) (or (or ?v_101 ?v_205) ?v_141)) (or (or ?v_59 ?v_141) P15)) (or (or P15 ?v_68) P7)) (or (or ?v_108 ?v_117) ?v_193)) (or (or ?v_155 ?v_96) ?v_173)) (or (or ?v_42 ?v_222) ?v_237)) (or (or ?v_219 ?v_164) P45)) (or (or ?v_77 ?v_238) ?v_114)) (or (or P47 ?v_186) ?v_210)) (or (or ?v_191 ?v_209) ?v_35)) (or (or ?v_205 ?v_246) P7)) (or (or P46 ?v_78) ?v_220)) (or (or P42 ?v_46) P26)) (or (or ?v_159 ?v_17) ?v_221)) (or (or ?v_25 ?v_135) ?v_163)) (or (or ?v_4 ?v_77) ?v_153)) (or (or ?v_23 ?v_66) P18)) (or (or ?v_103 ?v_247) ?v_106)) (or (or ?v_181 P1) ?v_103)) (or (or ?v_73 ?v_121) ?v_35)) (or (or ?v_50 ?v_118) ?v_119)) (or (or ?v_51 ?v_90) ?v_95)) (or (or ?v_198 P37) ?v_248)) (or (or ?v_191 ?v_45) ?v_190)) (or (or ?v_129 ?v_73) ?v_159)) (or (or ?v_210 P37) ?v_101)) (or (or ?v_212 ?v_178) ?v_57)) (or (or ?v_249 P4) ?v_171)) (or (or ?v_63 ?v_250) ?v_150)) (or (or ?v_183 ?v_107) ?v_129)) (or (or ?v_18 ?v_197) ?v_48)) (or (or ?v_29 ?v_204) ?v_251)) (or (or ?v_230 ?v_249) ?v_92)) (or (or ?v_190 P16) ?v_41)) (or (or ?v_42 P7) ?v_81)) (or (or ?v_218 ?v_193) ?v_79)) (or (or ?v_65 ?v_197) ?v_56)) (or (or ?v_78 ?v_15) ?v_252)) (or (or ?v_129 P7) ?v_43)) (or (or ?v_215 P24) ?v_237)) (or (or P34 ?v_131) ?v_142)) (or (or ?v_202 ?v_244) ?v_50)) (or (or ?v_51 ?v_105) ?v_160)) (or (or ?v_40 ?v_15) ?v_207)) (or (or P39 ?v_218) ?v_226)) (or (or ?v_21 ?v_199) ?v_253)) (or (or ?v_144 ?v_152) ?v_141)) (or (or ?v_20 ?v_50) ?v_117)) (or (or P10 P42) ?v_190)) (or (or ?v_137 P29) ?v_183)) (or (or ?v_87 ?v_118) ?v_251)) (or (or ?v_53 ?v_206) ?v_226)) (or (or ?v_178 ?v_108) ?v_136)) (or (or ?v_7 ?v_47) P2)) (or (or ?v_199 ?v_206) ?v_67)) (or (or ?v_31 ?v_71) P21)) (or (or ?v_120 ?v_59) ?v_121)) (or (or ?v_55 ?v_254) ?v_243)) (or (or ?v_105 ?v_63) ?v_152)) (or (or P10 ?v_17) ?v_159)) (or (or ?v_55 ?v_93) ?v_140)) (or (or ?v_158 P16) ?v_189)) (or (or ?v_150 P41) P45)) (or (or ?v_63 ?v_181) ?v_90)) (or (or ?v_194 P38) P11)) (or (or ?v_158 ?v_253) ?v_242)) (or (or ?v_51 ?v_81) ?v_5)) (or (or ?v_243 ?v_199) ?v_22)) (or (or ?v_59 P46) ?v_139)) (or (or P42 ?v_178) P12)) (or (or ?v_200 P20) ?v_125)) (or (or ?v_171 ?v_78) ?v_205)) (or (or ?v_254 ?v_235) ?v_34)) (or (or ?v_237 ?v_35) ?v_144)) (or (or ?v_138 ?v_140) P0)) (or (or (not ?v_239) ?v_105) P2)) (or (or ?v_223 ?v_83) ?v_37)) (or (or ?v_116 ?v_104) ?v_179)) (or (or ?v_212 ?v_230) ?v_59)) (or (or ?v_90 ?v_119) P2)) (or (or ?v_183 P36) ?v_252)) (or (or ?v_67 ?v_243) ?v_33)) (or (or ?v_206 ?v_219) ?v_221)) (or (or ?v_15 ?v_104) P7)) (or (or ?v_130 ?v_157) ?v_125)) (or (or ?v_37 P15) ?v_155)) (or (or ?v_108 ?v_257) ?v_226)) (or (or ?v_205 ?v_135) ?v_77)) (or (or ?v_199 ?v_214) ?v_147)) (or (or ?v_127 ?v_249) P2)) (or (or ?v_83 P48) ?v_170)) (or (or ?v_51 ?v_16) ?v_245)) (or (or ?v_109 ?v_215) ?v_15)) (or (or ?v_60 ?v_55) ?v_181)) (or (or ?v_42 P49) ?v_190)) (or (or ?v_176 P6) ?v_66)) (or (or ?v_108 ?v_214) ?v_247)) (or (or ?v_164 ?v_179) ?v_65)) (or (or ?v_174 ?v_255) ?v_38)) (or (or ?v_218 ?v_135) ?v_25)) (or (or ?v_122 ?v_178) ?v_103)) (or (or ?v_132 ?v_68) ?v_226)) (or (or ?v_64 ?v_116) P15)) (or (or ?v_158 ?v_91) ?v_235)) (or (or ?v_105 ?v_13) ?v_33)) (or (or ?v_256 ?v_13) ?v_169)) (or (or ?v_58 ?v_235) ?v_35)) (or (or ?v_204 ?v_52) P29)) (or (or ?v_35 ?v_248) P33)) (or (or ?v_168 ?v_11) ?v_85)) (or (or P4 ?v_230) P32)) (or (or ?v_13 ?v_212) ?v_111)) (or (or P35 ?v_98) ?v_109)) (or (or (not ?v_246) ?v_152) P9)) (or (or ?v_79 P25) ?v_256)) (or (or ?v_131 ?v_118) P7)) (or (or ?v_65 ?v_219) P48)) (or (or P42 ?v_130) P27)) (or (or P40 ?v_187) ?v_168)) (or (or ?v_22 P21) ?v_57)) (or (or ?v_111 ?v_237) P1)) (or (or ?v_186 ?v_157) P22)) (or (or ?v_110 ?v_222) ?v_98)) (or (or P15 P21) ?v_254)) (or (or ?v_190 ?v_203) ?v_128)) (or (or ?v_215 ?v_37) ?v_185)) (or (or P13 ?v_242) ?v_223)) (or (or P40 ?v_244) ?v_125)) (or (or ?v_104 ?v_255) ?v_70)) (or (or ?v_198 ?v_46) P12)) (or (or ?v_23 P43) ?v_109)) (or (or ?v_90 ?v_77) ?v_152)) (or (or ?v_45 ?v_15) ?v_92)) (or (or ?v_257 ?v_127) ?v_66)) (or (or ?v_156 P35) ?v_52)) (or (or P47 ?v_103) P15)) (or (or ?v_145 ?v_182) ?v_241)) (or (or ?v_220 P15) ?v_18)) (or (or ?v_108 ?v_132) ?v_124)) (or (or ?v_249 ?v_190) ?v_163)) (or (or ?v_15 ?v_223) ?v_242)) (or (or ?v_42 ?v_124) ?v_175)) (or (or ?v_143 ?v_201) ?v_156)) (or (or ?v_91 ?v_15) ?v_90)) (or (or ?v_138 ?v_71) ?v_247)) (or (or ?v_73 P38) ?v_16)) (or (or ?v_219 P4) ?v_104)) (or (or ?v_188 ?v_186) ?v_183)) (or (or ?v_218 P17) ?v_192)) (or (or ?v_241 ?v_258) ?v_176)) (or (or ?v_210 ?v_178) ?v_161)) (or (or ?v_159 ?v_257) ?v_13)) (or (or ?v_63 ?v_200) ?v_135)) (or (or ?v_254 ?v_146) P7)) (or (or ?v_211 ?v_87) ?v_108)) (or (or ?v_13 P43) ?v_112)) (or (or P21 ?v_163) ?v_248)) (or (or P4 ?v_26) ?v_8)) (or (or ?v_223 P10) ?v_56)) (or (or ?v_79 ?v_121) ?v_241)) (or (or P4 P23) ?v_17)) (or (or ?v_106 ?v_34) ?v_116)) (or (or ?v_37 ?v_244) ?v_165)) (or (or ?v_43 ?v_191) ?v_108)) (or (or P0 ?v_235) ?v_224)) (or (or ?v_165 ?v_64) ?v_21)) (or (or ?v_103 ?v_79) ?v_116)) (or (or ?v_168 ?v_81) ?v_170)) (or (or ?v_4 ?v_49) ?v_233)) (or (or ?v_60 ?v_250) ?v_12)) (or (or P47 ?v_89) ?v_94)) (or (or ?v_203 ?v_109) P5)) (or (or ?v_259 ?v_34) ?v_116)) (or (or ?v_257 ?v_216) ?v_30)) (or (or ?v_246 P21) ?v_85)) (or (or ?v_2 ?v_24) ?v_163)) (or (or ?v_152 ?v_151) P31)) (or (or ?v_214 ?v_95) ?v_75)) (or (or ?v_60 P20) ?v_252)) (or (or ?v_166 ?v_188) ?v_183)) (or (or ?v_245 ?v_148) ?v_80)) (or (or ?v_237 ?v_108) ?v_225)) (or (or ?v_151 ?v_66) ?v_134)) (or (or ?v_107 ?v_193) ?v_250)) (or (or ?v_180 ?v_156) P34)) (or (or ?v_80 ?v_43) P28)) (or (or P19 ?v_223) ?v_177)) (or (or P45 P24) ?v_119)) (or (or ?v_123 P1) P7)) (or (or ?v_218 ?v_191) ?v_170)) (or (or ?v_177 ?v_188) ?v_193)) (or (or ?v_36 ?v_5) P7)) (or (or ?v_246 ?v_216) P40)) (or (or ?v_260 ?v_93) ?v_53)) (or (or ?v_202 ?v_242) ?v_217)) (or (or ?v_241 ?v_93) ?v_228)) (or (or ?v_104 ?v_167) P32)) (or (or ?v_231 ?v_113) ?v_7)) (or (or ?v_195 ?v_56) P45)))))))))))))))))))))))))))))))))))
(check-sat)
(exit)
